c "984346.clq"
p edge 253 3792
e 1 17
e 1 18
e 1 19
e 1 20
e 1 21
e 1 22
e 1 23
e 1 24
e 1 25
e 1 26
e 1 29
e 1 32
e 1 36
e 1 38
e 1 44
e 1 47
e 1 48
e 1 52
e 1 54
e 1 55
e 1 56
e 1 61
e 1 63
e 1 67
e 1 68
e 1 70
e 1 72
e 1 73
e 1 84
e 1 94
e 1 100
e 1 101
e 1 113
e 1 114
e 1 126
e 1 130
e 1 141
e 1 147
e 1 169
e 1 203
e 1 215
e 1 251
e 1 252
e 2 17
e 2 18
e 2 19
e 2 22
e 2 24
e 2 27
e 2 34
e 2 39
e 2 40
e 2 41
e 2 43
e 2 44
e 2 47
e 2 50
e 2 53
e 2 56
e 2 62
e 2 106
e 2 108
e 2 114
e 2 115
e 2 117
e 2 118
e 2 119
e 2 154
e 2 165
e 2 182
e 2 187
e 2 195
e 2 197
e 2 202
e 2 203
e 2 210
e 2 226
e 2 229
e 2 248
e 3 17
e 3 18
e 3 19
e 3 20
e 3 21
e 3 22
e 3 23
e 3 24
e 3 25
e 3 26
e 3 29
e 3 31
e 3 39
e 3 42
e 3 43
e 3 46
e 3 47
e 3 49
e 3 54
e 3 55
e 3 58
e 3 59
e 3 61
e 3 66
e 3 77
e 3 80
e 3 86
e 3 97
e 3 98
e 3 99
e 3 105
e 3 120
e 3 124
e 3 129
e 3 139
e 3 144
e 3 147
e 3 149
e 3 161
e 3 177
e 3 182
e 3 185
e 3 191
e 3 219
e 3 220
e 3 225
e 4 17
e 4 18
e 4 19
e 4 20
e 4 21
e 4 25
e 4 27
e 4 32
e 4 33
e 4 36
e 4 44
e 4 47
e 4 54
e 4 60
e 4 61
e 4 69
e 4 80
e 4 91
e 4 93
e 4 96
e 4 97
e 4 106
e 4 116
e 4 153
e 4 159
e 4 167
e 4 171
e 4 180
e 4 200
e 4 236
e 4 239
e 4 240
e 5 17
e 5 18
e 5 19
e 5 20
e 5 21
e 5 22
e 5 23
e 5 24
e 5 25
e 5 27
e 5 28
e 5 29
e 5 31
e 5 32
e 5 33
e 5 34
e 5 35
e 5 36
e 5 37
e 5 38
e 5 42
e 5 44
e 5 45
e 5 50
e 5 53
e 5 61
e 5 65
e 5 72
e 5 74
e 5 83
e 5 85
e 5 87
e 5 88
e 5 96
e 5 99
e 5 106
e 5 108
e 5 111
e 5 113
e 5 115
e 5 122
e 5 124
e 5 131
e 5 132
e 5 143
e 5 148
e 5 149
e 5 159
e 5 165
e 5 166
e 5 170
e 5 173
e 5 174
e 5 175
e 5 176
e 5 177
e 5 179
e 5 181
e 5 183
e 5 188
e 5 210
e 5 215
e 5 221
e 5 227
e 5 228
e 5 232
e 5 233
e 5 236
e 5 243
e 6 17
e 6 18
e 6 19
e 6 20
e 6 21
e 6 22
e 6 23
e 6 25
e 6 26
e 6 27
e 6 30
e 6 33
e 6 36
e 6 39
e 6 48
e 6 49
e 6 52
e 6 55
e 6 57
e 6 58
e 6 68
e 6 74
e 6 77
e 6 81
e 6 91
e 6 101
e 6 120
e 6 125
e 6 134
e 6 147
e 6 167
e 6 170
e 6 171
e 6 180
e 6 188
e 6 191
e 6 200
e 6 203
e 6 209
e 6 231
e 6 235
e 6 239
e 6 245
e 7 17
e 7 18
e 7 20
e 7 24
e 7 25
e 7 27
e 7 28
e 7 29
e 7 35
e 7 37
e 7 49
e 7 51
e 7 64
e 7 66
e 7 72
e 7 77
e 7 84
e 7 100
e 7 127
e 7 133
e 7 168
e 7 184
e 7 201
e 7 227
e 7 231
e 7 239
e 8 17
e 8 18
e 8 19
e 8 20
e 8 21
e 8 23
e 8 24
e 8 25
e 8 26
e 8 27
e 8 28
e 8 32
e 8 33
e 8 35
e 8 36
e 8 39
e 8 42
e 8 44
e 8 47
e 8 52
e 8 60
e 8 63
e 8 64
e 8 65
e 8 78
e 8 85
e 8 86
e 8 95
e 8 100
e 8 104
e 8 105
e 8 109
e 8 127
e 8 142
e 8 143
e 8 144
e 8 153
e 8 156
e 8 165
e 8 167
e 8 170
e 8 183
e 8 189
e 8 195
e 8 198
e 8 199
e 8 209
e 8 214
e 8 221
e 8 222
e 8 229
e 8 241
e 8 247
e 8 249
e 9 17
e 9 18
e 9 19
e 9 22
e 9 26
e 9 29
e 9 31
e 9 32
e 9 33
e 9 35
e 9 36
e 9 40
e 9 42
e 9 43
e 9 49
e 9 51
e 9 71
e 9 93
e 9 103
e 9 106
e 9 122
e 9 134
e 9 143
e 9 148
e 9 195
e 9 206
e 9 215
e 9 220
e 9 222
e 10 17
e 10 18
e 10 19
e 10 20
e 10 21
e 10 22
e 10 23
e 10 24
e 10 26
e 10 28
e 10 29
e 10 30
e 10 31
e 10 32
e 10 33
e 10 34
e 10 35
e 10 37
e 10 39
e 10 40
e 10 46
e 10 48
e 10 50
e 10 51
e 10 53
e 10 60
e 10 62
e 10 63
e 10 70
e 10 85
e 10 86
e 10 99
e 10 104
e 10 107
e 10 121
e 10 123
e 10 131
e 10 136
e 10 138
e 10 144
e 10 146
e 10 147
e 10 150
e 10 154
e 10 155
e 10 157
e 10 163
e 10 166
e 10 169
e 10 182
e 10 186
e 10 192
e 10 195
e 10 204
e 10 205
e 10 218
e 10 235
e 10 239
e 10 244
e 10 252
e 11 17
e 11 19
e 11 20
e 11 21
e 11 23
e 11 31
e 11 57
e 11 69
e 11 70
e 11 85
e 11 90
e 11 97
e 11 163
e 11 228
e 11 229
e 11 236
e 12 17
e 12 18
e 12 19
e 12 20
e 12 21
e 12 22
e 12 25
e 12 26
e 12 29
e 12 30
e 12 31
e 12 32
e 12 34
e 12 45
e 12 48
e 12 64
e 12 65
e 12 76
e 12 91
e 12 114
e 12 120
e 12 122
e 12 141
e 12 215
e 12 241
e 13 17
e 13 18
e 13 19
e 13 20
e 13 21
e 13 22
e 13 23
e 13 24
e 13 26
e 13 27
e 13 30
e 13 37
e 13 38
e 13 39
e 13 46
e 13 52
e 13 54
e 13 64
e 13 68
e 13 70
e 13 76
e 13 87
e 13 88
e 13 91
e 13 98
e 13 110
e 13 112
e 13 127
e 13 131
e 13 141
e 13 153
e 13 154
e 13 177
e 13 193
e 13 238
e 14 17
e 14 18
e 14 19
e 14 20
e 14 21
e 14 22
e 14 23
e 14 27
e 14 28
e 14 29
e 14 33
e 14 34
e 14 36
e 14 37
e 14 40
e 14 49
e 14 50
e 14 54
e 14 70
e 14 78
e 14 80
e 14 83
e 14 87
e 14 89
e 14 93
e 14 108
e 14 112
e 14 123
e 14 139
e 14 149
e 14 150
e 14 160
e 14 166
e 14 190
e 14 200
e 14 214
e 14 234
e 14 251
e 14 253
e 15 17
e 15 18
e 15 20
e 15 22
e 15 31
e 15 33
e 15 39
e 15 40
e 15 48
e 15 53
e 15 55
e 15 68
e 15 71
e 15 72
e 15 73
e 15 76
e 15 80
e 15 103
e 15 104
e 15 112
e 15 135
e 15 137
e 15 152
e 15 158
e 15 176
e 16 17
e 16 18
e 16 19
e 16 21
e 16 22
e 16 23
e 16 24
e 16 25
e 16 27
e 16 28
e 16 29
e 16 30
e 16 35
e 16 40
e 16 44
e 16 45
e 16 56
e 16 58
e 16 59
e 16 60
e 16 67
e 16 90
e 16 94
e 16 104
e 16 132
e 16 158
e 16 179
e 16 180
e 16 186
e 16 187
e 16 198
e 16 204
e 16 253
e 17 18
e 17 19
e 17 20
e 17 21
e 17 22
e 17 23
e 17 24
e 17 25
e 17 26
e 17 28
e 17 29
e 17 31
e 17 32
e 17 34
e 17 35
e 17 36
e 17 39
e 17 42
e 17 43
e 17 44
e 17 46
e 17 48
e 17 52
e 17 53
e 17 55
e 17 59
e 17 62
e 17 64
e 17 68
e 17 69
e 17 70
e 17 71
e 17 72
e 17 79
e 17 81
e 17 83
e 17 84
e 17 88
e 17 91
e 17 93
e 17 99
e 17 102
e 17 104
e 17 105
e 17 110
e 17 121
e 17 126
e 17 127
e 17 134
e 17 138
e 17 140
e 17 142
e 17 144
e 17 145
e 17 151
e 17 155
e 17 156
e 17 157
e 17 160
e 17 163
e 17 167
e 17 173
e 17 178
e 17 180
e 17 184
e 17 186
e 17 196
e 17 201
e 17 205
e 17 212
e 17 217
e 17 220
e 17 221
e 17 222
e 17 248
e 17 252
e 18 19
e 18 20
e 18 21
e 18 23
e 18 24
e 18 25
e 18 26
e 18 27
e 18 28
e 18 29
e 18 30
e 18 31
e 18 32
e 18 34
e 18 36
e 18 37
e 18 38
e 18 39
e 18 40
e 18 41
e 18 42
e 18 44
e 18 46
e 18 47
e 18 48
e 18 49
e 18 50
e 18 52
e 18 53
e 18 54
e 18 56
e 18 57
e 18 58
e 18 60
e 18 63
e 18 64
e 18 66
e 18 71
e 18 72
e 18 73
e 18 75
e 18 76
e 18 78
e 18 82
e 18 84
e 18 92
e 18 94
e 18 95
e 18 98
e 18 100
e 18 103
e 18 105
e 18 106
e 18 107
e 18 110
e 18 111
e 18 113
e 18 114
e 18 116
e 18 122
e 18 131
e 18 138
e 18 140
e 18 145
e 18 148
e 18 152
e 18 155
e 18 158
e 18 159
e 18 160
e 18 162
e 18 168
e 18 170
e 18 173
e 18 189
e 18 192
e 18 197
e 18 198
e 18 199
e 18 200
e 18 209
e 18 215
e 18 221
e 18 222
e 18 230
e 18 238
e 18 245
e 18 246
e 18 248
e 18 249
e 18 250
e 18 252
e 18 253
e 19 20
e 19 21
e 19 22
e 19 23
e 19 24
e 19 25
e 19 26
e 19 27
e 19 28
e 19 30
e 19 31
e 19 32
e 19 33
e 19 34
e 19 35
e 19 36
e 19 38
e 19 41
e 19 42
e 19 43
e 19 44
e 19 45
e 19 46
e 19 51
e 19 53
e 19 55
e 19 57
e 19 58
e 19 59
e 19 60
e 19 62
e 19 63
e 19 66
e 19 68
e 19 72
e 19 73
e 19 75
e 19 76
e 19 85
e 19 87
e 19 92
e 19 100
e 19 101
e 19 109
e 19 111
e 19 115
e 19 123
e 19 124
e 19 129
e 19 132
e 19 138
e 19 142
e 19 143
e 19 155
e 19 167
e 19 168
e 19 172
e 19 177
e 19 180
e 19 187
e 19 192
e 19 201
e 19 202
e 19 204
e 19 211
e 19 216
e 19 220
e 19 226
e 19 233
e 19 235
e 19 242
e 20 21
e 20 22
e 20 23
e 20 24
e 20 25
e 20 26
e 20 27
e 20 28
e 20 29
e 20 30
e 20 31
e 20 32
e 20 33
e 20 34
e 20 35
e 20 37
e 20 38
e 20 41
e 20 44
e 20 46
e 20 47
e 20 50
e 20 52
e 20 54
e 20 57
e 20 61
e 20 63
e 20 65
e 20 72
e 20 75
e 20 77
e 20 79
e 20 80
e 20 82
e 20 84
e 20 87
e 20 88
e 20 90
e 20 92
e 20 93
e 20 96
e 20 97
e 20 101
e 20 106
e 20 118
e 20 121
e 20 122
e 20 123
e 20 125
e 20 128
e 20 135
e 20 140
e 20 143
e 20 148
e 20 150
e 20 152
e 20 155
e 20 157
e 20 159
e 20 161
e 20 173
e 20 175
e 20 178
e 20 183
e 20 186
e 20 188
e 20 191
e 20 192
e 20 203
e 20 232
e 20 236
e 20 242
e 20 248
e 21 22
e 21 23
e 21 24
e 21 26
e 21 27
e 21 28
e 21 30
e 21 31
e 21 32
e 21 34
e 21 36
e 21 38
e 21 43
e 21 44
e 21 46
e 21 52
e 21 54
e 21 55
e 21 66
e 21 67
e 21 78
e 21 83
e 21 84
e 21 87
e 21 88
e 21 96
e 21 100
e 21 102
e 21 104
e 21 107
e 21 122
e 21 129
e 21 142
e 21 147
e 21 148
e 21 150
e 21 151
e 21 152
e 21 159
e 21 161
e 21 174
e 21 178
e 21 184
e 21 186
e 21 187
e 21 191
e 21 201
e 21 202
e 21 204
e 21 211
e 21 212
e 21 213
e 21 225
e 21 232
e 21 240
e 21 242
e 21 244
e 21 249
e 21 250
e 22 23
e 22 24
e 22 25
e 22 26
e 22 27
e 22 28
e 22 30
e 22 33
e 22 35
e 22 40
e 22 41
e 22 43
e 22 44
e 22 46
e 22 48
e 22 50
e 22 59
e 22 60
e 22 65
e 22 66
e 22 71
e 22 73
e 22 74
e 22 78
e 22 79
e 22 80
e 22 81
e 22 86
e 22 87
e 22 94
e 22 97
e 22 102
e 22 105
e 22 106
e 22 107
e 22 108
e 22 113
e 22 116
e 22 119
e 22 121
e 22 122
e 22 129
e 22 130
e 22 132
e 22 136
e 22 141
e 22 143
e 22 145
e 22 153
e 22 155
e 22 158
e 22 159
e 22 176
e 22 179
e 22 186
e 22 189
e 22 190
e 22 194
e 22 200
e 22 202
e 22 207
e 22 210
e 22 211
e 22 219
e 22 224
e 22 226
e 22 232
e 22 235
e 22 240
e 22 241
e 22 242
e 22 243
e 22 247
e 23 24
e 23 25
e 23 28
e 23 30
e 23 31
e 23 32
e 23 34
e 23 37
e 23 38
e 23 40
e 23 41
e 23 42
e 23 45
e 23 46
e 23 51
e 23 52
e 23 55
e 23 58
e 23 62
e 23 63
e 23 68
e 23 69
e 23 70
e 23 77
e 23 79
e 23 89
e 23 90
e 23 107
e 23 112
e 23 128
e 23 129
e 23 134
e 23 149
e 23 152
e 23 156
e 23 157
e 23 162
e 23 163
e 23 166
e 23 169
e 23 180
e 23 187
e 23 197
e 23 206
e 23 209
e 23 215
e 23 217
e 23 224
e 23 229
e 23 239
e 23 240
e 23 251
e 24 25
e 24 26
e 24 27
e 24 28
e 24 29
e 24 30
e 24 31
e 24 33
e 24 34
e 24 35
e 24 37
e 24 39
e 24 41
e 24 43
e 24 51
e 24 58
e 24 59
e 24 62
e 24 63
e 24 66
e 24 67
e 24 70
e 24 81
e 24 83
e 24 95
e 24 96
e 24 101
e 24 103
e 24 107
e 24 111
e 24 115
e 24 119
e 24 137
e 24 156
e 24 157
e 24 158
e 24 162
e 24 163
e 24 175
e 24 176
e 24 178
e 24 180
e 24 181
e 24 188
e 24 190
e 24 204
e 24 216
e 24 218
e 24 221
e 24 228
e 24 246
e 24 250
e 25 26
e 25 27
e 25 29
e 25 30
e 25 31
e 25 39
e 25 40
e 25 41
e 25 43
e 25 45
e 25 47
e 25 48
e 25 49
e 25 50
e 25 51
e 25 52
e 25 53
e 25 55
e 25 57
e 25 58
e 25 63
e 25 65
e 25 71
e 25 77
e 25 82
e 25 84
e 25 85
e 25 87
e 25 90
e 25 95
e 25 98
e 25 101
e 25 103
e 25 104
e 25 107
e 25 111
e 25 123
e 25 135
e 25 137
e 25 139
e 25 140
e 25 141
e 25 154
e 25 162
e 25 170
e 25 177
e 25 178
e 25 181
e 25 191
e 25 201
e 25 203
e 25 209
e 25 216
e 25 220
e 25 228
e 25 234
e 25 241
e 25 247
e 26 28
e 26 29
e 26 35
e 26 38
e 26 39
e 26 40
e 26 41
e 26 42
e 26 43
e 26 44
e 26 45
e 26 46
e 26 49
e 26 53
e 26 55
e 26 56
e 26 59
e 26 61
e 26 63
e 26 64
e 26 73
e 26 74
e 26 76
e 26 78
e 26 79
e 26 80
e 26 81
e 26 86
e 26 88
e 26 89
e 26 90
e 26 91
e 26 100
e 26 102
e 26 126
e 26 132
e 26 133
e 26 135
e 26 136
e 26 139
e 26 142
e 26 143
e 26 146
e 26 155
e 26 176
e 26 178
e 26 181
e 26 188
e 26 190
e 26 199
e 26 200
e 26 203
e 26 205
e 26 208
e 26 210
e 26 213
e 26 220
e 26 223
e 26 225
e 26 226
e 26 245
e 26 246
e 27 28
e 27 30
e 27 31
e 27 33
e 27 35
e 27 36
e 27 37
e 27 38
e 27 39
e 27 42
e 27 43
e 27 45
e 27 49
e 27 53
e 27 54
e 27 55
e 27 56
e 27 57
e 27 60
e 27 67
e 27 72
e 27 76
e 27 79
e 27 89
e 27 91
e 27 95
e 27 97
e 27 116
e 27 124
e 27 125
e 27 126
e 27 142
e 27 143
e 27 152
e 27 161
e 27 183
e 27 191
e 27 194
e 27 219
e 27 228
e 27 231
e 27 243
e 27 244
e 27 250
e 27 252
e 27 253
e 28 29
e 28 30
e 28 32
e 28 33
e 28 34
e 28 35
e 28 37
e 28 38
e 28 40
e 28 41
e 28 42
e 28 43
e 28 46
e 28 47
e 28 50
e 28 51
e 28 54
e 28 59
e 28 61
e 28 62
e 28 65
e 28 69
e 28 71
e 28 74
e 28 78
e 28 79
e 28 81
e 28 82
e 28 84
e 28 85
e 28 86
e 28 87
e 28 91
e 28 94
e 28 107
e 28 114
e 28 122
e 28 125
e 28 127
e 28 129
e 28 130
e 28 135
e 28 138
e 28 139
e 28 141
e 28 144
e 28 147
e 28 154
e 28 177
e 28 180
e 28 182
e 28 189
e 28 198
e 28 200
e 28 202
e 28 209
e 28 218
e 28 219
e 28 220
e 28 233
e 28 240
e 28 250
e 28 251
e 29 30
e 29 32
e 29 34
e 29 35
e 29 36
e 29 37
e 29 39
e 29 42
e 29 43
e 29 45
e 29 46
e 29 48
e 29 50
e 29 54
e 29 56
e 29 61
e 29 67
e 29 68
e 29 73
e 29 74
e 29 75
e 29 78
e 29 81
e 29 84
e 29 88
e 29 89
e 29 90
e 29 95
e 29 96
e 29 101
e 29 102
e 29 110
e 29 113
e 29 115
e 29 117
e 29 121
e 29 126
e 29 134
e 29 141
e 29 145
e 29 147
e 29 152
e 29 157
e 29 166
e 29 171
e 29 174
e 29 184
e 29 185
e 29 192
e 29 193
e 29 195
e 29 204
e 29 206
e 29 210
e 29 211
e 29 213
e 29 219
e 29 222
e 29 226
e 29 229
e 29 230
e 29 233
e 29 236
e 29 251
e 30 32
e 30 33
e 30 34
e 30 35
e 30 38
e 30 40
e 30 41
e 30 43
e 30 46
e 30 47
e 30 54
e 30 55
e 30 56
e 30 59
e 30 60
e 30 61
e 30 65
e 30 66
e 30 67
e 30 68
e 30 69
e 30 71
e 30 77
e 30 78
e 30 80
e 30 82
e 30 83
e 30 86
e 30 92
e 30 93
e 30 96
e 30 103
e 30 104
e 30 105
e 30 111
e 30 121
e 30 124
e 30 125
e 30 129
e 30 132
e 30 135
e 30 140
e 30 147
e 30 152
e 30 154
e 30 162
e 30 172
e 30 184
e 30 185
e 30 189
e 30 203
e 30 205
e 30 206
e 30 216
e 30 217
e 30 220
e 30 221
e 30 222
e 30 224
e 30 226
e 30 228
e 30 230
e 30 231
e 30 238
e 30 239
e 30 247
e 31 36
e 31 37
e 31 38
e 31 39
e 31 40
e 31 45
e 31 49
e 31 50
e 31 51
e 31 53
e 31 59
e 31 61
e 31 65
e 31 67
e 31 93
e 31 95
e 31 97
e 31 101
e 31 103
e 31 105
e 31 106
e 31 108
e 31 109
e 31 110
e 31 112
e 31 114
e 31 119
e 31 121
e 31 124
e 31 125
e 31 126
e 31 128
e 31 135
e 31 136
e 31 139
e 31 146
e 31 152
e 31 153
e 31 164
e 31 167
e 31 168
e 31 174
e 31 183
e 31 184
e 31 192
e 31 200
e 31 203
e 31 218
e 31 225
e 31 231
e 31 234
e 31 235
e 31 240
e 31 243
e 31 245
e 32 33
e 32 36
e 32 38
e 32 41
e 32 47
e 32 49
e 32 51
e 32 53
e 32 54
e 32 55
e 32 57
e 32 59
e 32 66
e 32 67
e 32 71
e 32 74
e 32 80
e 32 83
e 32 85
e 32 89
e 32 92
e 32 94
e 32 100
e 32 101
e 32 102
e 32 108
e 32 127
e 32 128
e 32 130
e 32 137
e 32 144
e 32 148
e 32 150
e 32 153
e 32 158
e 32 161
e 32 166
e 32 182
e 32 183
e 32 188
e 32 190
e 32 203
e 32 207
e 32 209
e 32 210
e 32 221
e 32 239
e 32 245
e 33 34
e 33 36
e 33 37
e 33 41
e 33 42
e 33 43
e 33 44
e 33 48
e 33 51
e 33 52
e 33 53
e 33 58
e 33 59
e 33 60
e 33 61
e 33 64
e 33 65
e 33 69
e 33 76
e 33 81
e 33 82
e 33 86
e 33 92
e 33 95
e 33 99
e 33 105
e 33 106
e 33 110
e 33 116
e 33 117
e 33 118
e 33 120
e 33 123
e 33 124
e 33 128
e 33 129
e 33 130
e 33 138
e 33 139
e 33 149
e 33 153
e 33 162
e 33 164
e 33 168
e 33 173
e 33 178
e 33 185
e 33 191
e 33 201
e 33 202
e 33 207
e 33 215
e 33 218
e 33 223
e 33 235
e 33 239
e 33 248
e 33 253
e 34 37
e 34 38
e 34 41
e 34 48
e 34 50
e 34 57
e 34 66
e 34 70
e 34 74
e 34 77
e 34 79
e 34 82
e 34 84
e 34 88
e 34 89
e 34 90
e 34 101
e 34 108
e 34 111
e 34 117
e 34 119
e 34 126
e 34 131
e 34 132
e 34 142
e 34 155
e 34 163
e 34 168
e 34 178
e 34 182
e 34 189
e 34 204
e 34 211
e 34 217
e 34 223
e 34 224
e 35 39
e 35 42
e 35 45
e 35 47
e 35 52
e 35 53
e 35 60
e 35 63
e 35 67
e 35 73
e 35 76
e 35 87
e 35 88
e 35 94
e 35 96
e 35 103
e 35 109
e 35 123
e 35 129
e 35 146
e 35 151
e 35 181
e 35 185
e 35 200
e 35 211
e 35 212
e 35 218
e 35 234
e 35 237
e 35 244
e 35 245
e 35 251
e 36 37
e 36 38
e 36 42
e 36 44
e 36 45
e 36 54
e 36 56
e 36 57
e 36 73
e 36 85
e 36 93
e 36 96
e 36 103
e 36 111
e 36 114
e 36 118
e 36 139
e 36 152
e 36 154
e 36 160
e 36 164
e 36 168
e 36 173
e 36 181
e 36 182
e 36 184
e 36 194
e 36 195
e 36 198
e 36 201
e 36 204
e 36 218
e 36 225
e 36 229
e 36 232
e 36 239
e 37 41
e 37 48
e 37 54
e 37 56
e 37 57
e 37 58
e 37 59
e 37 70
e 37 83
e 37 87
e 37 89
e 37 91
e 37 99
e 37 100
e 37 106
e 37 112
e 37 124
e 37 125
e 37 129
e 37 146
e 37 162
e 37 168
e 37 197
e 37 207
e 37 213
e 37 217
e 37 234
e 37 235
e 37 242
e 37 244
e 37 247
e 38 40
e 38 43
e 38 45
e 38 52
e 38 53
e 38 55
e 38 59
e 38 63
e 38 67
e 38 75
e 38 82
e 38 86
e 38 91
e 38 93
e 38 95
e 38 96
e 38 102
e 38 103
e 38 104
e 38 112
e 38 137
e 38 150
e 38 156
e 38 167
e 38 169
e 38 174
e 38 176
e 38 185
e 38 192
e 38 194
e 38 199
e 38 201
e 38 210
e 38 220
e 38 226
e 38 245
e 38 246
e 38 247
e 39 40
e 39 41
e 39 60
e 39 62
e 39 69
e 39 74
e 39 78
e 39 81
e 39 85
e 39 87
e 39 90
e 39 91
e 39 92
e 39 93
e 39 95
e 39 99
e 39 107
e 39 116
e 39 119
e 39 122
e 39 125
e 39 131
e 39 134
e 39 143
e 39 145
e 39 146
e 39 155
e 39 168
e 39 176
e 39 185
e 39 190
e 39 197
e 39 199
e 39 201
e 39 209
e 39 212
e 39 221
e 39 223
e 39 228
e 40 46
e 40 47
e 40 49
e 40 50
e 40 51
e 40 53
e 40 56
e 40 66
e 40 68
e 40 70
e 40 71
e 40 76
e 40 79
e 40 80
e 40 86
e 40 92
e 40 121
e 40 125
e 40 131
e 40 136
e 40 139
e 40 140
e 40 141
e 40 164
e 40 167
e 40 172
e 40 200
e 40 207
e 40 248
e 41 42
e 41 44
e 41 45
e 41 47
e 41 48
e 41 49
e 41 54
e 41 56
e 41 57
e 41 58
e 41 63
e 41 66
e 41 72
e 41 73
e 41 75
e 41 84
e 41 85
e 41 89
e 41 90
e 41 94
e 41 96
e 41 101
e 41 108
e 41 109
e 41 112
e 41 113
e 41 118
e 41 121
e 41 124
e 41 133
e 41 138
e 41 165
e 41 166
e 41 194
e 41 197
e 41 208
e 41 211
e 41 213
e 41 220
e 41 234
e 41 244
e 41 247
e 41 251
e 42 52
e 42 56
e 42 64
e 42 67
e 42 69
e 42 92
e 42 110
e 42 113
e 42 124
e 42 138
e 42 147
e 42 148
e 42 153
e 42 160
e 42 174
e 42 194
e 42 204
e 42 210
e 42 213
e 42 224
e 42 227
e 42 229
e 42 238
e 42 240
e 42 243
e 42 252
e 43 45
e 43 46
e 43 47
e 43 49
e 43 61
e 43 63
e 43 64
e 43 69
e 43 75
e 43 77
e 43 80
e 43 81
e 43 82
e 43 86
e 43 90
e 43 92
e 43 104
e 43 105
e 43 114
e 43 117
e 43 123
e 43 125
e 43 126
e 43 128
e 43 134
e 43 140
e 43 141
e 43 143
e 43 151
e 43 153
e 43 161
e 43 164
e 43 173
e 43 179
e 43 183
e 43 184
e 43 198
e 43 204
e 43 216
e 43 233
e 43 234
e 43 239
e 43 252
e 44 45
e 44 50
e 44 51
e 44 52
e 44 57
e 44 62
e 44 65
e 44 72
e 44 80
e 44 83
e 44 87
e 44 88
e 44 93
e 44 94
e 44 103
e 44 113
e 44 119
e 44 122
e 44 123
e 44 131
e 44 149
e 44 169
e 44 172
e 44 175
e 44 180
e 44 188
e 44 189
e 44 199
e 44 213
e 44 214
e 44 234
e 44 238
e 45 48
e 45 50
e 45 57
e 45 62
e 45 99
e 45 101
e 45 130
e 45 158
e 45 215
e 45 249
e 46 47
e 46 48
e 46 49
e 46 51
e 46 58
e 46 59
e 46 64
e 46 70
e 46 77
e 46 80
e 46 91
e 46 93
e 46 98
e 46 114
e 46 116
e 46 118
e 46 124
e 46 147
e 46 148
e 46 155
e 46 158
e 46 181
e 46 198
e 46 207
e 46 239
e 46 244
e 47 58
e 47 62
e 47 69
e 47 75
e 47 85
e 47 94
e 47 97
e 47 99
e 47 102
e 47 111
e 47 118
e 47 135
e 47 136
e 47 141
e 47 143
e 47 153
e 47 168
e 47 176
e 47 177
e 47 186
e 47 228
e 48 49
e 48 56
e 48 58
e 48 60
e 48 61
e 48 62
e 48 65
e 48 66
e 48 68
e 48 73
e 48 77
e 48 78
e 48 82
e 48 89
e 48 90
e 48 98
e 48 102
e 48 105
e 48 118
e 48 129
e 48 132
e 48 137
e 48 139
e 48 140
e 48 142
e 48 166
e 48 174
e 48 177
e 48 181
e 48 183
e 48 185
e 48 187
e 48 200
e 48 214
e 48 219
e 48 220
e 48 240
e 48 248
e 49 50
e 49 51
e 49 60
e 49 64
e 49 68
e 49 69
e 49 74
e 49 75
e 49 76
e 49 77
e 49 83
e 49 84
e 49 88
e 49 92
e 49 94
e 49 98
e 49 99
e 49 100
e 49 111
e 49 115
e 49 120
e 49 133
e 49 137
e 49 141
e 49 144
e 49 147
e 49 149
e 49 150
e 49 151
e 49 155
e 49 160
e 49 169
e 49 175
e 49 177
e 49 184
e 49 191
e 49 195
e 49 199
e 49 202
e 49 212
e 49 223
e 49 229
e 49 233
e 49 234
e 49 242
e 49 243
e 49 246
e 50 51
e 50 59
e 50 64
e 50 71
e 50 72
e 50 74
e 50 79
e 50 85
e 50 89
e 50 95
e 50 96
e 50 105
e 50 111
e 50 113
e 50 115
e 50 122
e 50 126
e 50 128
e 50 129
e 50 137
e 50 138
e 50 144
e 50 172
e 50 210
e 50 218
e 50 235
e 50 238
e 50 247
e 51 52
e 51 55
e 51 62
e 51 67
e 51 75
e 51 84
e 51 91
e 51 92
e 51 94
e 51 100
e 51 102
e 51 106
e 51 109
e 51 112
e 51 120
e 51 125
e 51 131
e 51 134
e 51 144
e 51 148
e 51 157
e 51 159
e 51 164
e 51 169
e 51 174
e 51 179
e 51 182
e 51 193
e 51 208
e 51 215
e 51 236
e 51 252
e 52 57
e 52 60
e 52 65
e 52 68
e 52 72
e 52 76
e 52 98
e 52 99
e 52 116
e 52 122
e 52 134
e 52 141
e 52 146
e 52 149
e 52 161
e 52 164
e 52 175
e 52 181
e 52 183
e 52 198
e 52 208
e 52 209
e 52 214
e 52 226
e 52 251
e 53 55
e 53 56
e 53 70
e 53 82
e 53 83
e 53 90
e 53 98
e 53 119
e 53 120
e 53 121
e 53 156
e 53 205
e 53 223
e 53 224
e 54 56
e 54 70
e 54 75
e 54 80
e 54 84
e 54 104
e 54 108
e 54 110
e 54 111
e 54 118
e 54 123
e 54 126
e 54 127
e 54 129
e 54 136
e 54 161
e 54 170
e 54 171
e 54 172
e 54 179
e 54 182
e 54 191
e 54 193
e 54 202
e 54 223
e 54 233
e 54 245
e 55 58
e 55 61
e 55 68
e 55 74
e 55 76
e 55 85
e 55 92
e 55 97
e 55 98
e 55 99
e 55 104
e 55 117
e 55 126
e 55 150
e 55 152
e 55 153
e 55 161
e 55 162
e 55 170
e 55 178
e 55 189
e 55 217
e 55 246
e 55 247
e 56 57
e 56 63
e 56 64
e 56 69
e 56 70
e 56 71
e 56 74
e 56 75
e 56 79
e 56 94
e 56 99
e 56 105
e 56 107
e 56 109
e 56 110
e 56 114
e 56 123
e 56 127
e 56 130
e 56 148
e 56 152
e 56 172
e 56 176
e 56 181
e 56 187
e 56 188
e 56 209
e 56 218
e 56 225
e 56 229
e 56 232
e 56 250
e 57 58
e 57 61
e 57 65
e 57 66
e 57 73
e 57 77
e 57 85
e 57 134
e 57 149
e 57 151
e 57 168
e 57 231
e 58 60
e 58 61
e 58 62
e 58 71
e 58 72
e 58 73
e 58 74
e 58 81
e 58 96
e 58 103
e 58 107
e 58 111
e 58 119
e 58 156
e 58 158
e 58 159
e 58 160
e 58 195
e 58 203
e 58 211
e 58 225
e 58 230
e 58 238
e 59 62
e 59 64
e 59 66
e 59 80
e 59 82
e 59 97
e 59 120
e 59 132
e 59 139
e 59 142
e 59 158
e 59 159
e 59 172
e 59 191
e 59 211
e 59 212
e 59 217
e 59 219
e 59 234
e 59 249
e 60 63
e 60 65
e 60 70
e 60 74
e 60 75
e 60 78
e 60 103
e 60 107
e 60 108
e 60 110
e 60 114
e 60 117
e 60 137
e 60 146
e 60 149
e 60 155
e 60 156
e 60 157
e 60 170
e 60 172
e 60 196
e 60 198
e 60 213
e 60 222
e 60 226
e 60 238
e 60 245
e 61 62
e 61 64
e 61 65
e 61 66
e 61 67
e 61 68
e 61 69
e 61 73
e 61 75
e 61 79
e 61 81
e 61 92
e 61 93
e 61 104
e 61 107
e 61 112
e 61 116
e 61 117
e 61 121
e 61 129
e 61 136
e 61 144
e 61 156
e 61 164
e 61 165
e 61 172
e 61 178
e 61 207
e 61 214
e 61 216
e 61 217
e 61 236
e 61 237
e 61 238
e 61 244
e 62 71
e 62 72
e 62 83
e 62 90
e 62 91
e 62 106
e 62 109
e 62 112
e 62 145
e 62 157
e 62 158
e 62 161
e 62 174
e 62 186
e 62 212
e 62 214
e 62 225
e 62 230
e 62 237
e 62 249
e 62 253
e 63 76
e 63 77
e 63 79
e 63 86
e 63 95
e 63 97
e 63 104
e 63 112
e 63 113
e 63 114
e 63 117
e 63 125
e 63 158
e 63 189
e 63 193
e 63 201
e 63 204
e 63 219
e 63 220
e 63 223
e 63 229
e 63 230
e 64 67
e 64 68
e 64 69
e 64 73
e 64 79
e 64 83
e 64 89
e 64 93
e 64 97
e 64 110
e 64 120
e 64 122
e 64 126
e 64 130
e 64 143
e 64 144
e 64 155
e 64 169
e 64 172
e 64 185
e 64 188
e 64 194
e 64 197
e 64 208
e 64 216
e 64 232
e 65 67
e 65 71
e 65 73
e 65 92
e 65 108
e 65 115
e 65 135
e 65 140
e 65 169
e 65 196
e 65 205
e 65 206
e 65 227
e 65 237
e 65 245
e 65 247
e 66 72
e 66 77
e 66 93
e 66 105
e 66 106
e 66 109
e 66 116
e 66 121
e 66 136
e 66 137
e 66 142
e 66 154
e 66 190
e 66 227
e 66 230
e 66 249
e 66 250
e 67 69
e 67 71
e 67 110
e 67 114
e 67 120
e 67 121
e 67 138
e 67 140
e 67 151
e 67 208
e 67 213
e 67 225
e 67 227
e 67 248
e 68 78
e 68 79
e 68 82
e 68 88
e 68 95
e 68 98
e 68 100
e 68 107
e 68 109
e 68 113
e 68 116
e 68 117
e 68 118
e 68 121
e 68 123
e 68 131
e 68 135
e 68 138
e 68 142
e 68 145
e 68 155
e 68 159
e 68 162
e 68 164
e 68 165
e 68 182
e 68 190
e 68 192
e 68 240
e 68 241
e 68 243
e 69 84
e 69 86
e 69 88
e 69 89
e 69 102
e 69 108
e 69 115
e 69 116
e 69 118
e 69 119
e 69 128
e 69 141
e 69 157
e 69 171
e 69 173
e 69 176
e 69 188
e 69 189
e 69 223
e 69 253
e 70 75
e 70 77
e 70 80
e 70 82
e 70 84
e 70 90
e 70 98
e 70 102
e 70 106
e 70 109
e 70 112
e 70 117
e 70 145
e 70 151
e 70 156
e 70 162
e 70 170
e 70 177
e 70 181
e 70 186
e 70 216
e 70 231
e 70 243
e 70 244
e 70 245
e 71 90
e 71 106
e 71 113
e 71 118
e 71 128
e 71 131
e 71 144
e 71 165
e 71 169
e 71 186
e 71 194
e 71 195
e 71 196
e 71 197
e 71 204
e 71 252
e 72 75
e 72 87
e 72 91
e 72 102
e 72 113
e 72 115
e 72 123
e 72 134
e 72 136
e 72 152
e 72 166
e 72 201
e 72 250
e 73 74
e 73 76
e 73 78
e 73 81
e 73 83
e 73 86
e 73 89
e 73 94
e 73 101
e 73 102
e 73 124
e 73 128
e 73 135
e 73 149
e 73 151
e 73 170
e 73 171
e 73 181
e 73 186
e 73 187
e 73 215
e 73 217
e 73 241
e 73 244
e 73 251
e 74 76
e 74 78
e 74 81
e 74 86
e 74 91
e 74 95
e 74 96
e 74 105
e 74 127
e 74 131
e 74 135
e 74 144
e 74 146
e 74 151
e 74 154
e 74 166
e 74 171
e 74 179
e 74 205
e 74 207
e 74 226
e 75 78
e 75 83
e 75 114
e 75 120
e 75 125
e 75 131
e 75 136
e 75 202
e 75 207
e 75 211
e 75 223
e 76 83
e 76 85
e 76 98
e 76 100
e 76 108
e 76 117
e 76 127
e 76 156
e 76 165
e 76 190
e 76 192
e 76 196
e 76 206
e 76 216
e 76 251
e 77 79
e 77 82
e 77 87
e 77 88
e 77 92
e 77 95
e 77 103
e 77 110
e 77 115
e 77 118
e 77 142
e 77 164
e 77 182
e 77 183
e 77 185
e 77 187
e 77 199
e 77 209
e 77 217
e 78 96
e 78 101
e 78 109
e 78 110
e 78 115
e 78 116
e 78 123
e 78 130
e 78 146
e 78 153
e 78 162
e 78 163
e 78 175
e 78 176
e 78 220
e 78 229
e 78 231
e 78 233
e 78 243
e 79 81
e 79 94
e 79 97
e 79 113
e 79 117
e 79 122
e 79 127
e 79 128
e 79 136
e 79 145
e 79 149
e 79 160
e 79 164
e 79 166
e 79 175
e 79 179
e 79 183
e 79 185
e 79 199
e 79 206
e 79 209
e 79 230
e 79 233
e 79 246
e 80 81
e 80 82
e 80 86
e 80 89
e 80 93
e 80 101
e 80 105
e 80 106
e 80 109
e 80 112
e 80 125
e 80 130
e 80 150
e 80 153
e 80 170
e 80 173
e 80 177
e 80 180
e 80 187
e 80 193
e 80 194
e 80 196
e 80 198
e 80 199
e 80 202
e 80 205
e 80 217
e 80 222
e 80 225
e 81 88
e 81 98
e 81 102
e 81 109
e 81 135
e 81 138
e 81 150
e 81 151
e 81 173
e 81 201
e 81 227
e 81 228
e 81 230
e 81 244
e 82 87
e 82 88
e 82 103
e 82 105
e 82 120
e 82 146
e 82 161
e 82 167
e 82 189
e 82 204
e 82 221
e 82 237
e 82 241
e 82 253
e 83 107
e 83 113
e 83 123
e 83 124
e 83 147
e 83 162
e 83 185
e 83 189
e 83 190
e 83 191
e 83 193
e 83 195
e 83 224
e 83 239
e 83 241
e 83 244
e 84 102
e 84 122
e 84 127
e 84 150
e 84 154
e 84 161
e 84 173
e 84 175
e 84 187
e 84 221
e 84 222
e 84 225
e 84 250
e 85 89
e 85 108
e 85 114
e 85 134
e 85 160
e 85 185
e 85 196
e 85 197
e 85 199
e 85 201
e 85 202
e 85 203
e 85 214
e 85 252
e 86 110
e 86 173
e 86 178
e 86 208
e 86 240
e 86 249
e 86 251
e 87 132
e 87 137
e 87 159
e 87 162
e 87 188
e 87 193
e 87 194
e 87 229
e 87 235
e 88 100
e 88 109
e 88 127
e 88 157
e 88 163
e 88 179
e 88 193
e 88 246
e 88 249
e 89 97
e 89 100
e 89 124
e 89 138
e 89 149
e 89 226
e 89 231
e 89 237
e 89 249
e 90 95
e 90 96
e 90 97
e 90 99
e 90 110
e 90 112
e 90 117
e 90 127
e 90 133
e 90 150
e 90 154
e 90 155
e 90 165
e 90 167
e 90 171
e 90 175
e 90 177
e 90 183
e 90 186
e 90 191
e 90 206
e 90 218
e 90 219
e 90 221
e 90 222
e 90 231
e 90 236
e 90 240
e 90 241
e 90 244
e 90 246
e 91 99
e 91 111
e 91 117
e 91 119
e 91 128
e 91 142
e 91 148
e 91 169
e 91 187
e 91 198
e 91 204
e 92 94
e 92 98
e 92 103
e 92 104
e 92 113
e 92 115
e 92 116
e 92 119
e 92 140
e 92 160
e 92 168
e 92 170
e 92 173
e 92 203
e 92 208
e 92 223
e 92 235
e 93 116
e 93 124
e 93 129
e 93 134
e 93 136
e 93 169
e 93 237
e 94 100
e 94 119
e 94 133
e 94 134
e 94 136
e 94 153
e 94 231
e 94 251
e 95 97
e 95 98
e 95 122
e 95 134
e 95 137
e 95 146
e 95 161
e 95 168
e 95 172
e 95 187
e 95 194
e 95 195
e 95 201
e 95 205
e 95 209
e 95 211
e 95 216
e 95 223
e 95 228
e 95 235
e 96 128
e 96 145
e 96 148
e 96 149
e 96 154
e 96 171
e 96 239
e 96 247
e 97 101
e 97 125
e 97 151
e 97 154
e 97 175
e 97 188
e 97 252
e 98 99
e 98 116
e 98 119
e 98 130
e 98 131
e 98 140
e 98 144
e 98 157
e 98 166
e 98 212
e 98 233
e 98 234
e 98 235
e 99 104
e 99 112
e 99 118
e 99 123
e 99 130
e 99 141
e 99 151
e 99 169
e 99 174
e 99 176
e 99 179
e 99 182
e 99 207
e 99 233
e 100 119
e 100 126
e 100 128
e 100 129
e 100 131
e 100 132
e 100 139
e 100 157
e 100 162
e 100 165
e 100 185
e 100 193
e 100 250
e 101 107
e 101 124
e 101 139
e 101 143
e 101 152
e 101 154
e 101 159
e 101 168
e 101 176
e 101 179
e 101 181
e 101 196
e 101 203
e 101 211
e 101 223
e 101 233
e 101 234
e 102 108
e 102 109
e 102 115
e 102 141
e 102 158
e 102 160
e 102 165
e 102 203
e 102 219
e 102 222
e 102 232
e 102 242
e 103 132
e 103 145
e 103 146
e 103 160
e 103 182
e 103 189
e 103 193
e 103 197
e 103 213
e 103 214
e 103 216
e 103 219
e 103 232
e 103 246
e 103 253
e 104 133
e 104 139
e 104 143
e 104 170
e 104 172
e 104 175
e 104 183
e 104 188
e 104 197
e 104 202
e 104 208
e 104 218
e 105 108
e 105 111
e 105 121
e 105 139
e 105 149
e 105 150
e 105 151
e 105 160
e 105 171
e 105 174
e 105 191
e 105 247
e 106 111
e 106 118
e 106 121
e 106 132
e 106 135
e 106 137
e 106 153
e 106 214
e 106 227
e 106 230
e 106 250
e 106 252
e 107 115
e 107 120
e 107 128
e 107 136
e 107 138
e 107 144
e 107 153
e 107 160
e 107 166
e 107 184
e 107 187
e 107 194
e 107 211
e 107 212
e 107 213
e 107 214
e 107 216
e 107 230
e 107 243
e 107 250
e 108 120
e 108 130
e 108 133
e 108 145
e 108 169
e 108 171
e 108 178
e 108 179
e 108 207
e 108 210
e 108 253
e 109 114
e 109 115
e 109 126
e 109 127
e 109 145
e 109 147
e 109 154
e 109 160
e 109 205
e 109 206
e 109 213
e 109 241
e 110 119
e 110 133
e 110 143
e 110 186
e 110 195
e 110 219
e 111 120
e 111 162
e 111 163
e 111 217
e 111 238
e 111 242
e 111 245
e 112 117
e 112 126
e 112 130
e 112 141
e 112 163
e 112 183
e 112 186
e 112 196
e 112 198
e 112 242
e 112 247
e 112 253
e 113 118
e 113 130
e 113 238
e 114 120
e 114 126
e 114 133
e 114 140
e 114 158
e 114 162
e 114 178
e 114 183
e 114 192
e 114 217
e 114 218
e 114 224
e 114 228
e 114 236
e 115 143
e 115 144
e 115 163
e 115 170
e 115 192
e 115 212
e 115 217
e 115 223
e 115 231
e 116 135
e 116 138
e 116 142
e 116 165
e 116 173
e 116 187
e 116 238
e 116 252
e 117 132
e 117 172
e 117 186
e 117 200
e 117 207
e 117 208
e 117 225
e 117 231
e 117 233
e 117 237
e 118 133
e 118 145
e 118 150
e 118 160
e 118 211
e 118 224
e 118 248
e 118 249
e 118 250
e 119 146
e 119 147
e 119 156
e 119 163
e 119 168
e 119 190
e 119 194
e 119 214
e 119 228
e 119 246
e 120 132
e 120 137
e 120 145
e 120 210
e 120 224
e 120 243
e 121 127
e 121 128
e 121 152
e 121 163
e 121 180
e 121 200
e 121 240
e 122 125
e 122 133
e 122 137
e 122 148
e 122 163
e 122 176
e 122 177
e 122 184
e 122 208
e 123 133
e 123 140
e 123 148
e 123 164
e 123 200
e 123 206
e 123 207
e 123 209
e 123 215
e 123 222
e 123 227
e 123 228
e 123 230
e 124 166
e 124 196
e 124 199
e 124 218
e 124 226
e 124 241
e 125 207
e 125 214
e 125 241
e 126 130
e 126 133
e 126 164
e 126 167
e 126 177
e 126 213
e 126 234
e 126 247
e 127 131
e 127 133
e 127 134
e 127 140
e 127 175
e 127 195
e 127 236
e 128 156
e 128 157
e 128 166
e 128 180
e 128 192
e 128 201
e 128 215
e 128 247
e 128 249
e 129 174
e 129 206
e 129 235
e 130 133
e 130 157
e 130 171
e 130 212
e 130 227
e 131 132
e 131 135
e 131 196
e 131 222
e 131 231
e 132 142
e 132 150
e 132 154
e 132 166
e 132 172
e 132 180
e 132 193
e 132 196
e 133 151
e 133 165
e 133 175
e 133 212
e 133 238
e 133 239
e 134 145
e 134 147
e 134 156
e 134 191
e 134 194
e 134 197
e 134 198
e 134 210
e 134 221
e 134 233
e 134 241
e 135 136
e 135 146
e 135 176
e 135 189
e 135 205
e 135 218
e 135 237
e 136 137
e 136 138
e 136 139
e 136 140
e 136 142
e 136 149
e 136 156
e 136 164
e 136 171
e 136 182
e 136 184
e 136 187
e 136 213
e 136 221
e 136 230
e 136 231
e 136 237
e 136 248
e 137 229
e 137 231
e 137 250
e 138 179
e 139 157
e 139 169
e 139 215
e 139 224
e 139 246
e 140 147
e 140 148
e 140 165
e 140 196
e 140 212
e 140 232
e 140 234
e 140 237
e 141 165
e 141 182
e 141 186
e 141 190
e 141 197
e 141 208
e 141 226
e 141 237
e 141 246
e 141 248
e 142 159
e 142 171
e 142 189
e 142 190
e 142 253
e 143 146
e 143 150
e 143 158
e 143 167
e 143 181
e 143 206
e 143 244
e 144 152
e 144 168
e 144 179
e 144 192
e 144 197
e 144 199
e 144 213
e 144 248
e 145 155
e 145 163
e 145 183
e 145 184
e 145 190
e 145 194
e 145 240
e 146 164
e 146 167
e 146 173
e 147 148
e 147 175
e 147 193
e 147 217
e 147 219
e 147 230
e 147 234
e 148 172
e 148 185
e 148 252
e 149 158
e 149 159
e 149 161
e 149 178
e 149 228
e 149 251
e 150 151
e 150 178
e 150 191
e 150 202
e 150 237
e 150 240
e 150 250
e 151 156
e 151 161
e 151 163
e 151 167
e 151 169
e 151 171
e 151 193
e 151 214
e 151 219
e 151 240
e 152 161
e 152 181
e 152 184
e 152 202
e 152 214
e 152 232
e 153 165
e 153 167
e 153 171
e 153 205
e 153 210
e 153 244
e 154 198
e 154 245
e 154 247
e 155 159
e 155 197
e 155 203
e 155 222
e 155 242
e 156 188
e 156 198
e 156 202
e 156 245
e 157 159
e 157 167
e 157 174
e 157 208
e 157 219
e 157 236
e 158 176
e 158 220
e 158 252
e 159 170
e 159 175
e 159 185
e 160 170
e 160 174
e 160 180
e 160 242
e 161 184
e 161 238
e 161 242
e 162 194
e 162 205
e 162 225
e 162 233
e 162 249
e 163 164
e 163 188
e 163 197
e 163 210
e 163 213
e 163 216
e 164 208
e 164 232
e 164 235
e 164 245
e 165 179
e 165 199
e 165 224
e 165 228
e 165 237
e 165 249
e 166 174
e 166 209
e 167 178
e 167 195
e 167 196
e 167 206
e 167 232
e 168 173
e 168 200
e 168 225
e 168 229
e 169 174
e 169 182
e 169 206
e 169 246
e 170 190
e 170 236
e 171 177
e 171 180
e 171 214
e 171 216
e 171 222
e 171 227
e 171 236
e 172 207
e 173 184
e 173 191
e 173 199
e 173 210
e 174 177
e 174 206
e 174 218
e 174 227
e 174 252
e 175 203
e 175 226
e 176 189
e 176 192
e 176 205
e 176 248
e 177 179
e 177 205
e 178 180
e 178 181
e 178 195
e 178 224
e 178 251
e 179 192
e 179 199
e 179 216
e 179 224
e 180 190
e 180 210
e 180 212
e 180 229
e 181 192
e 181 196
e 181 200
e 181 201
e 181 223
e 181 229
e 181 239
e 181 242
e 182 251
e 183 208
e 183 215
e 183 237
e 183 246
e 184 206
e 185 218
e 185 238
e 185 248
e 185 253
e 186 193
e 186 202
e 186 225
e 187 188
e 187 224
e 187 245
e 188 193
e 188 195
e 188 209
e 188 230
e 189 216
e 189 226
e 189 244
e 191 196
e 191 221
e 191 223
e 192 204
e 192 211
e 192 219
e 193 204
e 193 207
e 193 238
e 194 198
e 194 224
e 195 222
e 195 240
e 196 220
e 196 227
e 196 248
e 197 253
e 198 236
e 199 205
e 199 215
e 200 242
e 200 243
e 200 246
e 201 208
e 202 212
e 203 211
e 203 241
e 203 253
e 204 221
e 204 253
e 205 234
e 206 237
e 206 243
e 207 220
e 208 239
e 208 241
e 209 221
e 209 249
e 210 236
e 211 212
e 211 215
e 211 217
e 211 227
e 211 232
e 211 249
e 212 228
e 212 243
e 213 235
e 213 243
e 215 226
e 215 230
e 215 232
e 215 236
e 216 241
e 216 242
e 216 243
e 218 225
e 219 242
e 220 250
e 221 227
e 222 227
e 224 235
e 225 232
e 226 248
e 230 233
e 241 251
